c status 99 1469386336871
c status 30 1469386336872
s td 50 30 102
b 1 6 1
b 2 7 1
b 3 22 1
b 4 26 1
b 5 18 1
b 6 15 2 1
b 7 92 37 2 1
b 8 32 33 1 28
b 9 35 34 1 28
b 10 33 34 1 28
b 11 48 59 70 81 1
b 12 8 10 3 37 2 1
b 13 11 3 9 37 2 1
b 14 10 3 9 37 2 1
b 15 16 3 9 12 37 2 1
b 16 23 24 25 27 29 30 31 1
b 17 13 14 3 9 12 37 2 1
b 18 24 25 27 29 30 31 19 1
b 19 25 27 29 30 31 2 19 1
b 20 29 30 31 2 19 1 28
b 21 98 86 78 69 63 61 51 1 39
b 22 78 69 63 61 51 79 1 39
b 23 20 21 3 9 12 17 37 2 19 1
b 24 69 63 61 51 72 73 74 75 76 79 1 39
b 25 63 61 51 68 72 73 74 75 76 79 67 66 65 64 1 39
b 26 61 51 68 72 73 74 75 76 79 67 66 65 64 62 1 39
b 27 51 55 68 72 73 74 75 76 79 67 66 65 64 62 1 39 71
b 28 60 1 28 36 38 39 40 41 42 43 44 45 46 47 49 50 52 53 54
b 29 3 9 12 17 37 2 19 55 68 72 73 74 75 76 79 67 66 65 64 62 1
b 30 2 19 55 68 72 73 74 75 76 79 67 66 65 64 62 1 28
b 31 55 68 72 73 74 75 76 79 67 66 65 64 62 1 28 39 71
b 32 67 66 65 64 62 1 28 39 46 71
b 33 66 65 64 62 1 28 39 45 46 71
b 34 65 64 62 1 28 39 44 45 46 71
b 35 64 62 1 28 39 43 44 45 46 71
b 36 62 1 28 39 42 43 44 45 46 71
b 37 82 77 1 28 36 38 39 40 41 42 43 44 45 46 47 49 50 52 53 54 71 80
b 38 83 84 85 87 88 1 28 36 38 39 40 41 42 43 44 45 46 47 49 50 52 53 54 71 80
b 39 84 85 87 88 89 1 28 36 38 39 40 41 42 43 44 45 46 47 49 50 52 53 54 71 80 90
b 40 85 87 91 88 89 1 28 36 38 39 40 41 42 43 44 45 46 47 49 50 52 53 54 71 80 90
b 41 87 91 88 89 1 28 36 38 39 40 41 42 43 44 45 46 47 49 50 52 53 54 71 80 90 93
b 42 91 88 89 1 28 36 38 39 40 41 42 43 44 45 46 47 49 50 52 53 54 71 80 90 93 94
b 43 88 89 95 1 28 36 38 39 40 41 42 43 44 45 46 47 49 50 52 53 54 71 80 90 93 94
b 44 89 95 96 1 28 36 38 39 40 41 42 43 44 45 46 47 49 50 52 53 54 71 80 90 93 94 97
b 45 95 96 1 28 36 38 39 40 41 42 43 44 45 46 47 49 50 52 53 54 71 80 90 93 94 97 99 100
b 46 96 1 28 36 38 39 40 41 42 43 44 45 46 47 49 50 52 53 54 71 80 90 93 94 97 99 100 101 102
b 47 56 1 4 28 36 38 39 40 41 42 43 44 45 46 47 49 50 52 53 54 71 80 90 93 94 97 99 100 101 102
b 48 57 1 4 28 36 38 39 40 41 42 43 44 45 46 47 49 50 52 53 54 71 80 90 93 94 97 99 100 101 102
b 49 58 1 4 28 36 38 39 40 41 42 43 44 45 46 47 49 50 52 53 54 71 80 90 93 94 97 99 100 101 102
b 50 5 1 4 28 36 38 39 40 41 42 43 44 45 46 47 49 50 52 53 54 71 80 90 93 94 97 99 100 101 102
1 2
1 50
50 47
50 48
50 49
47 46
46 45
45 44
44 43
43 42
42 41
41 40
40 39
39 38
45 37
45 28
45 36
36 35
35 34
34 33
33 32
32 31
31 27
31 30
30 29
27 26
26 25
25 24
29 23
24 22
22 21
23 17
29 15
23 14
29 13
14 12
30 20
20 19
19 18
18 16
29 7
7 6
44 8
8 10
10 9
15 5
5 11
11 4
11 3
